44 1
363
479
743
1292
1452
1641
2032
2276
2698
2848
2938
3044
3063
3133
3772
3811
3837
4518
4772
5227
5492
5631
5812
5847
6163
7077
7417
7697
7780
7908
8295
8837
8918
8959
9060
9112
9186
9868
9933
9949
11253
11952
12186
12518
